c
c LOANDRA:	 an extension of Open-WBO to core-boosted linear search.
c Version:	 July 2019 2018 -- Release: 1.0
c Authors:	 Jeremias Berg, Emir Demirovic, Peter Stuckey
c We thank the developers of Open-WBO for their work
c
c Open-WBO:	 a Modular MaxSAT Solver -- based on Glucose4.1 (core version)
c Version:	 September 2018 -- Release: 2.1
c Authors:	 Ruben Martins, Vasco Manquinho, Ines Lynce
c Contributors:	 Miguel Neves, Saurabh Joshi, Norbert Manthey, Mikolas Janota
c Contact:	 open-wbo@sat.inesc-id.pt -- http://sat.inesc-id.pt/open-wbo/
c
c WARNING: for repeatability, setting FPU to use double precision
c |                                                                                                       |
c ========================================[ Problem Statistics ]===========================================
c |                                                                                                       |
c |  Problem Format:             MaxSAT                                                                   |
c |  Problem Type:           Unweighted                                                                   |
c |  Number of variables:          1669                                                                   |
c |  Number of hard clauses:      14381                                                                   |
c |  Number of soft clauses:       1219                                                                   |
c |  Number of cardinality:           0                                                                   |
c |  Number of PB :                   0                                                                   |
c |  Parse time:                   0.01 s                                                                 |
c |                                                                                                       |
c PMRES ALGORITHM WITH LINEAR SEARCH 
c PMRES LINEAR STRAT=1
c PMRES LINEAR DIVISION=1
c PMRES CORE DIVISION=0
c PMRES CORE LIMIT (-1 = no limit)=30
c PMRES RELAX BEFORE STRAT =0
c PMRES INCREMENTAL LIN DIVISION =0
c PMRES MINIM =1
c PMRES MINIM STRAT =0
c PRE hard clauses before: 15600
c PRE soft literals before: 1219
c PRE time: 0 removed weight: 509
c PRE hard clauses after: 14410
c PRE soft literals after: 710
c Checking model
c CG best 755 LB: 509 at 0
o 755
c CG GAP: 246 T 0
c CG New weight: 1 at 0
c PMRES CORE LIMIT (-1 = no limit)=30
c Core budget remaining 30
c CG GAP: 245 T 0
c LB : 510          CS : 1            W  : 1           
c Core budget remaining 30
c CG GAP: 244 T 0
c LB : 511          CS : 1            W  : 1           
c Core budget remaining 30
c CG GAP: 243 T 0
c LB : 512          CS : 1            W  : 1           
c Core budget remaining 30
c CG GAP: 242 T 0
c LB : 513          CS : 1            W  : 1           
c Core budget remaining 30
c CG GAP: 241 T 0
c LB : 514          CS : 1            W  : 1           
c Core budget remaining 30
c CG GAP: 240 T 0
c LB : 515          CS : 1            W  : 1           
c Core budget remaining 30
c CG GAP: 239 T 0
c LB : 516          CS : 1            W  : 1           
c Core budget remaining 30
c CG GAP: 238 T 0
c LB : 517          CS : 1            W  : 1           
c Core budget remaining 30
c CG GAP: 237 T 0
c LB : 518          CS : 1            W  : 1           
c Core budget remaining 30
c CG GAP: 236 T 0
c LB : 519          CS : 1            W  : 1           
c Core budget remaining 30
c CG GAP: 235 T 0
c LB : 520          CS : 1            W  : 1           
c Core budget remaining 30
c CG GAP: 234 T 0
c LB : 521          CS : 1            W  : 1           
c Core budget remaining 30
c CG GAP: 233 T 0
c LB : 522          CS : 1            W  : 1           
c Core budget remaining 30
c CG GAP: 232 T 0
c LB : 523          CS : 1            W  : 1           
c Core budget remaining 30
c CG GAP: 231 T 0
c LB : 524          CS : 1            W  : 1           
c Core budget remaining 30
c CG GAP: 230 T 0
c LB : 525          CS : 1            W  : 1           
c Core budget remaining 30
c CG GAP: 229 T 0
c LB : 526          CS : 1            W  : 1           
c Core budget remaining 30
c CG GAP: 228 T 0
c LB : 527          CS : 1            W  : 1           
c Core budget remaining 30
c CG GAP: 227 T 0
c LB : 528          CS : 1            W  : 1           
c Core budget remaining 30
c CG GAP: 226 T 0
c LB : 529          CS : 1            W  : 1           
c Core budget remaining 30
c CG GAP: 225 T 0
c LB : 530          CS : 1            W  : 1           
c Core budget remaining 30
c CG GAP: 224 T 0
c LB : 531          CS : 1            W  : 1           
c Core budget remaining 30
c CG GAP: 223 T 0
c LB : 532          CS : 1            W  : 1           
c Core budget remaining 30
c CG GAP: 222 T 0
c LB : 533          CS : 1            W  : 1           
c Core budget remaining 30
c CG GAP: 221 T 0
c LB : 534          CS : 1            W  : 1           
c Core budget remaining 30
c CG GAP: 220 T 0
c LB : 535          CS : 1            W  : 1           
c Core budget remaining 30
c CG GAP: 219 T 0
c LB : 536          CS : 1            W  : 1           
c Core budget remaining 30
c CG GAP: 218 T 0
c LB : 537          CS : 1            W  : 1           
c Core budget remaining 30
c CG GAP: 217 T 0
c LB : 538          CS : 1            W  : 1           
c Core budget remaining 30
c CG GAP: 216 T 0
c LB : 539          CS : 1            W  : 1           
c Core budget remaining 30
c CG GAP: 215 T 0
c LB : 540          CS : 1            W  : 1           
c Core budget remaining 30
c CG GAP: 214 T 0
c LB : 541          CS : 1            W  : 1           
c Core budget remaining 30
c CG GAP: 213 T 0
c LB : 542          CS : 1            W  : 1           
c Core budget remaining 30
c CG GAP: 212 T 0
c LB : 543          CS : 1            W  : 1           
c Core budget remaining 30
c CG GAP: 211 T 0
c LB : 544          CS : 1            W  : 1           
c Core budget remaining 30
c CG GAP: 210 T 0
c LB : 545          CS : 1            W  : 1           
c Core budget remaining 30
c CG GAP: 209 T 0
c LB : 546          CS : 1            W  : 1           
c Core budget remaining 30
c CG GAP: 208 T 0
c LB : 547          CS : 1            W  : 1           
c Core budget remaining 30
c CG GAP: 207 T 0
c LB : 548          CS : 1            W  : 1           
c Core budget remaining 30
c CG GAP: 206 T 0
c LB : 549          CS : 1            W  : 1           
c Core budget remaining 30
c CG GAP: 205 T 0
c LB : 550          CS : 1            W  : 1           
c Core budget remaining 30
c CG GAP: 204 T 0
c LB : 551          CS : 1            W  : 1           
c Core budget remaining 30
c CG GAP: 203 T 0
c LB : 552          CS : 1            W  : 1           
c Core budget remaining 30
c CG GAP: 202 T 0
c LB : 553          CS : 1            W  : 1           
c Core budget remaining 30
c CG GAP: 201 T 0
c LB : 554          CS : 1            W  : 1           
c Core budget remaining 30
c CG GAP: 200 T 0
c LB : 555          CS : 1            W  : 1           
c Core budget remaining 30
c CG GAP: 199 T 0
c LB : 556          CS : 1            W  : 1           
c Core budget remaining 30
c CG GAP: 198 T 0
c LB : 557          CS : 1            W  : 1           
c Core budget remaining 30
c CG GAP: 197 T 0
c LB : 558          CS : 1            W  : 1           
c Core budget remaining 30
c CG GAP: 196 T 0
c LB : 559          CS : 1            W  : 1           
c Core budget remaining 30
c CG GAP: 195 T 0
c LB : 560          CS : 1            W  : 1           
c Core budget remaining 30
c CG GAP: 194 T 0
c LB : 561          CS : 1            W  : 1           
c Core budget remaining 30
c CG GAP: 193 T 0
c LB : 562          CS : 1            W  : 1           
c Core budget remaining 30
c CG GAP: 192 T 0
c LB : 563          CS : 1            W  : 1           
c Core budget remaining 30
c CG GAP: 191 T 0
c LB : 564          CS : 1            W  : 1           
c Core budget remaining 30
c CG GAP: 190 T 0
c LB : 565          CS : 1            W  : 1           
c Core budget remaining 30
c CG GAP: 189 T 0
c LB : 566          CS : 1            W  : 1           
c Core budget remaining 30
c CG GAP: 188 T 0
c LB : 567          CS : 1            W  : 1           
c Core budget remaining 30
c CG GAP: 187 T 0
c LB : 568          CS : 1            W  : 1           
c Core budget remaining 30
c CG GAP: 186 T 0
c LB : 569          CS : 1            W  : 1           
c Core budget remaining 30
c CG GAP: 185 T 0
c LB : 570          CS : 1            W  : 1           
c Core budget remaining 30
c CG GAP: 184 T 0
c LB : 571          CS : 1            W  : 1           
c Core budget remaining 30
c CG GAP: 183 T 0
c LB : 572          CS : 1            W  : 1           
c Core budget remaining 30
c CG GAP: 182 T 0
c LB : 573          CS : 1            W  : 1           
c Core budget remaining 30
c CG GAP: 181 T 0
c LB : 574          CS : 1            W  : 1           
c Core budget remaining 30
c CG GAP: 180 T 0
c LB : 575          CS : 1            W  : 1           
c Core budget remaining 30
c CG GAP: 179 T 0
c LB : 576          CS : 1            W  : 1           
c Core budget remaining 30
c CG GAP: 178 T 0
c LB : 577          CS : 1            W  : 1           
c Core budget remaining 30
c CG GAP: 177 T 0
c LB : 578          CS : 1            W  : 1           
c Core budget remaining 30
c CG GAP: 176 T 0
c LB : 579          CS : 1            W  : 1           
c Core budget remaining 30
c CG GAP: 175 T 0
c LB : 580          CS : 1            W  : 1           
c Core budget remaining 30
c CG GAP: 174 T 0
c LB : 581          CS : 1            W  : 1           
c Core budget remaining 30
c CG GAP: 173 T 0
c LB : 582          CS : 1            W  : 1           
c Core budget remaining 30
c CG GAP: 172 T 0
c LB : 583          CS : 1            W  : 1           
c Core budget remaining 30
c CG GAP: 171 T 0
c LB : 584          CS : 1            W  : 1           
c Core budget remaining 30
c CG GAP: 170 T 0
c LB : 585          CS : 1            W  : 1           
c Core budget remaining 30
c CG GAP: 169 T 0
c LB : 586          CS : 1            W  : 1           
c Core budget remaining 30
c CG GAP: 168 T 0
c LB : 587          CS : 1            W  : 1           
c Core budget remaining 30
c CG GAP: 167 T 0
c LB : 588          CS : 1            W  : 1           
c Core budget remaining 30
c CG GAP: 166 T 0
c LB : 589          CS : 1            W  : 1           
c Core budget remaining 30
c CG GAP: 165 T 0
c LB : 590          CS : 1            W  : 1           
c Core budget remaining 30
c CG GAP: 164 T 0
c LB : 591          CS : 1            W  : 1           
c Core budget remaining 30
c CG GAP: 163 T 0
c LB : 592          CS : 1            W  : 1           
c Core budget remaining 30
c CG GAP: 162 T 0
c LB : 593          CS : 1            W  : 1           
c Core budget remaining 30
c CG GAP: 161 T 0
c LB : 594          CS : 1            W  : 1           
c Core budget remaining 30
c CG GAP: 160 T 0
c LB : 595          CS : 1            W  : 1           
c Core budget remaining 30
c CG GAP: 159 T 0
c LB : 596          CS : 1            W  : 1           
c Core budget remaining 30
c CG GAP: 158 T 0
c LB : 597          CS : 1            W  : 1           
c Core budget remaining 30
c CG GAP: 157 T 0
c LB : 598          CS : 1            W  : 1           
c Core budget remaining 30
c CG GAP: 156 T 0
c LB : 599          CS : 1            W  : 1           
c Core budget remaining 30
c CG GAP: 155 T 0
c LB : 600          CS : 1            W  : 1           
c Core budget remaining 30
c CG GAP: 154 T 0
c LB : 601          CS : 1            W  : 1           
c Core budget remaining 30
c CG GAP: 153 T 0
c LB : 602          CS : 1            W  : 1           
c Core budget remaining 30
c CG GAP: 152 T 0
c LB : 603          CS : 1            W  : 1           
c Core budget remaining 30
c CG GAP: 151 T 0
c LB : 604          CS : 1            W  : 1           
c Core budget remaining 30
c CG GAP: 150 T 0
c LB : 605          CS : 1            W  : 1           
c Core budget remaining 30
c CG GAP: 149 T 0
c LB : 606          CS : 1            W  : 1           
c Core budget remaining 30
c CG GAP: 148 T 0
c LB : 607          CS : 1            W  : 1           
c Core budget remaining 30
c CG GAP: 147 T 0
c LB : 608          CS : 1            W  : 1           
c Core budget remaining 30
c CG GAP: 146 T 0
c LB : 609          CS : 1            W  : 1           
c Core budget remaining 30
c CG GAP: 145 T 0
c LB : 610          CS : 1            W  : 1           
c Core budget remaining 30
c CG GAP: 144 T 0
c LB : 611          CS : 1            W  : 1           
c Core budget remaining 30
c CG GAP: 143 T 0
c LB : 612          CS : 1            W  : 1           
c Core budget remaining 30
c CG GAP: 142 T 0
c LB : 613          CS : 1            W  : 1           
c Core budget remaining 30
c CG GAP: 141 T 0
c LB : 614          CS : 1            W  : 1           
c Core budget remaining 30
c CG GAP: 140 T 0
c LB : 615          CS : 1            W  : 1           
c Core budget remaining 30
c CG GAP: 139 T 0
c LB : 616          CS : 1            W  : 1           
c Core budget remaining 30
c CG GAP: 138 T 0
c LB : 617          CS : 1            W  : 1           
c Core budget remaining 30
c CG GAP: 137 T 0
c LB : 618          CS : 1            W  : 1           
c Core budget remaining 30
c CG GAP: 136 T 0
c LB : 619          CS : 1            W  : 1           
c Core budget remaining 30
c CG GAP: 135 T 0
c LB : 620          CS : 1            W  : 1           
c Core budget remaining 30
c CG GAP: 134 T 0
c LB : 621          CS : 1            W  : 1           
c Core budget remaining 30
c CG GAP: 133 T 0
c LB : 622          CS : 1            W  : 1           
c Core budget remaining 30
c CG GAP: 132 T 0
c LB : 623          CS : 1            W  : 1           
c Core budget remaining 30
c CG GAP: 131 T 0
c LB : 624          CS : 1            W  : 1           
c Core budget remaining 30
c CG GAP: 130 T 0
c LB : 625          CS : 1            W  : 1           
c Core budget remaining 30
c CG GAP: 129 T 0
c LB : 626          CS : 1            W  : 1           
c Core budget remaining 30
c CG GAP: 128 T 0
c LB : 627          CS : 1            W  : 1           
c Core budget remaining 30
c CG GAP: 127 T 0
c LB : 628          CS : 1            W  : 1           
c Core budget remaining 30
c CG GAP: 126 T 0
c LB : 629          CS : 1            W  : 1           
c Core budget remaining 30
c CG GAP: 125 T 0
c LB : 630          CS : 1            W  : 1           
c Core budget remaining 30
c CG GAP: 124 T 0
c LB : 631          CS : 1            W  : 1           
c Core budget remaining 30
c CG GAP: 123 T 0
c LB : 632          CS : 1            W  : 1           
c Core budget remaining 30
c CG GAP: 122 T 0
c LB : 633          CS : 1            W  : 1           
c Core budget remaining 30
c CG GAP: 121 T 0
c LB : 634          CS : 1            W  : 1           
c Core budget remaining 30
c CG GAP: 120 T 0
c LB : 635          CS : 1            W  : 1           
c Core budget remaining 30
c CG GAP: 119 T 0
c LB : 636          CS : 1            W  : 1           
c Core budget remaining 30
c CG GAP: 118 T 0
c LB : 637          CS : 1            W  : 1           
c Core budget remaining 30
c CG GAP: 117 T 0
c LB : 638          CS : 1            W  : 1           
c Core budget remaining 30
c CG GAP: 116 T 0
c LB : 639          CS : 1            W  : 1           
c Core budget remaining 30
c CG GAP: 115 T 0
c LB : 640          CS : 1            W  : 1           
c Core budget remaining 30
c CG GAP: 114 T 0
c LB : 641          CS : 1            W  : 1           
c Core budget remaining 30
c CG GAP: 113 T 0
c LB : 642          CS : 1            W  : 1           
c Core budget remaining 30
c CG GAP: 112 T 0
c LB : 643          CS : 1            W  : 1           
c Core budget remaining 30
c CG GAP: 111 T 0
c LB : 644          CS : 1            W  : 1           
c Core budget remaining 30
c CG GAP: 110 T 0
c LB : 645          CS : 1            W  : 1           
c Core budget remaining 30
c CG GAP: 109 T 0
c LB : 646          CS : 1            W  : 1           
c Core budget remaining 30
c CG GAP: 108 T 0
c LB : 647          CS : 1            W  : 1           
c Core budget remaining 30
c CG GAP: 107 T 0
c LB : 648          CS : 1            W  : 1           
c Core budget remaining 30
c CG GAP: 106 T 0
c LB : 649          CS : 1            W  : 1           
c Core budget remaining 30
c CG GAP: 105 T 0
c LB : 650          CS : 1            W  : 1           
c Core budget remaining 30
c CG GAP: 104 T 0
c LB : 651          CS : 1            W  : 1           
c Core budget remaining 30
c CG GAP: 103 T 0
c LB : 652          CS : 1            W  : 1           
c Core budget remaining 30
c CG GAP: 102 T 0
c LB : 653          CS : 1            W  : 1           
c Core budget remaining 30
c CG GAP: 101 T 0
c LB : 654          CS : 1            W  : 1           
c Core budget remaining 30
c CG GAP: 100 T 0
c LB : 655          CS : 1            W  : 1           
c Core budget remaining 30
c CG GAP: 99 T 0
c LB : 656          CS : 1            W  : 1           
c Core budget remaining 30
c CG GAP: 98 T 0
c LB : 657          CS : 1            W  : 1           
c Core budget remaining 30
c CG GAP: 97 T 0
c LB : 658          CS : 1            W  : 1           
c Core budget remaining 30
c CG GAP: 96 T 0
c LB : 659          CS : 1            W  : 1           
c Core budget remaining 30
c CG GAP: 95 T 0
c LB : 660          CS : 1            W  : 1           
c Core budget remaining 30
c CG GAP: 94 T 0
c LB : 661          CS : 1            W  : 1           
c Core budget remaining 30
c CG GAP: 93 T 0
c LB : 662          CS : 1            W  : 1           
c Core budget remaining 30
c CG GAP: 92 T 0
c LB : 663          CS : 1            W  : 1           
c Core budget remaining 30
c CG GAP: 91 T 0
c LB : 664          CS : 1            W  : 1           
c Core budget remaining 30
c CG GAP: 90 T 0
c LB : 665          CS : 1            W  : 1           
c Core budget remaining 30
c CG GAP: 89 T 0
c LB : 666          CS : 1            W  : 1           
c Core budget remaining 30
c CG GAP: 88 T 0
c LB : 667          CS : 1            W  : 1           
c Core budget remaining 30
c CG GAP: 87 T 0
c LB : 668          CS : 1            W  : 1           
c Core budget remaining 30
c CG GAP: 86 T 0
c LB : 669          CS : 1            W  : 1           
c Core budget remaining 30
c CG GAP: 85 T 0
c LB : 670          CS : 1            W  : 1           
c Core budget remaining 30
c CG GAP: 84 T 0
c LB : 671          CS : 1            W  : 1           
c Core budget remaining 30
c CG GAP: 83 T 0
c LB : 672          CS : 1            W  : 1           
c Core budget remaining 30
c CG GAP: 82 T 0
c LB : 673          CS : 1            W  : 1           
c Core budget remaining 30
c CG GAP: 81 T 0
c LB : 674          CS : 1            W  : 1           
c Core budget remaining 30
c CG GAP: 80 T 0
c LB : 675          CS : 1            W  : 1           
c Core budget remaining 30
c CG GAP: 79 T 0
c LB : 676          CS : 1            W  : 1           
c Core budget remaining 30
c CG GAP: 78 T 0
c LB : 677          CS : 1            W  : 1           
c Core budget remaining 30
c CG GAP: 77 T 0
c LB : 678          CS : 1            W  : 1           
c Core budget remaining 30
c CG GAP: 76 T 0
c LB : 679          CS : 1            W  : 1           
c Core budget remaining 30
c CG GAP: 75 T 0
c LB : 680          CS : 1            W  : 1           
c Core budget remaining 30
c CG GAP: 74 T 0
c LB : 681          CS : 1            W  : 1           
c Core budget remaining 30
c CG GAP: 73 T 0
c LB : 682          CS : 1            W  : 1           
c Core budget remaining 30
c CG GAP: 72 T 0
c LB : 683          CS : 1            W  : 1           
c Core budget remaining 30
c CG GAP: 71 T 0
c LB : 684          CS : 1            W  : 1           
c Core budget remaining 30
c CG GAP: 70 T 0
c LB : 685          CS : 1            W  : 1           
c Core budget remaining 30
c CG GAP: 69 T 0
c LB : 686          CS : 1            W  : 1           
c Core budget remaining 30
c CG GAP: 68 T 0
c LB : 687          CS : 1            W  : 1           
c Core budget remaining 30
c CG GAP: 67 T 0
c LB : 688          CS : 1            W  : 1           
c Core budget remaining 30
c CG GAP: 66 T 0
c LB : 689          CS : 1            W  : 1           
c Core budget remaining 30
c CG GAP: 65 T 0
c LB : 690          CS : 1            W  : 1           
c Core budget remaining 30
c CG GAP: 64 T 0
c LB : 691          CS : 1            W  : 1           
c Core budget remaining 30
c CG GAP: 63 T 0
c LB : 692          CS : 1            W  : 1           
c Core budget remaining 30
c CG GAP: 62 T 0
c LB : 693          CS : 1            W  : 1           
c Core budget remaining 30
c CG GAP: 61 T 0
c LB : 694          CS : 1            W  : 1           
c Core budget remaining 30
c CG GAP: 60 T 0
c LB : 695          CS : 1            W  : 1           
c Core budget remaining 30
c CG GAP: 59 T 0
c LB : 696          CS : 1            W  : 1           
c Core budget remaining 30
c CG GAP: 58 T 0
c LB : 697          CS : 1            W  : 1           
c Core budget remaining 30
c CG GAP: 57 T 0
c LB : 698          CS : 1            W  : 1           
c Core budget remaining 30
c CG GAP: 56 T 0
c LB : 699          CS : 1            W  : 1           
c Core budget remaining 30
c CG GAP: 55 T 0
c LB : 700          CS : 1            W  : 1           
c Core budget remaining 30
c CG GAP: 54 T 0
c LB : 701          CS : 1            W  : 1           
c Core budget remaining 30
c CG GAP: 53 T 0
c LB : 702          CS : 1            W  : 1           
c Core budget remaining 30
c CG GAP: 52 T 0
c LB : 703          CS : 1            W  : 1           
c Core budget remaining 30
c CG GAP: 51 T 0
c LB : 704          CS : 1            W  : 1           
c Core budget remaining 30
c CG GAP: 50 T 0
c LB : 705          CS : 1            W  : 1           
c Core budget remaining 30
c CG GAP: 49 T 0
c LB : 706          CS : 1            W  : 1           
c Core budget remaining 30
c CG GAP: 48 T 0
c LB : 707          CS : 1            W  : 1           
c Core budget remaining 30
c CG GAP: 47 T 0
c LB : 708          CS : 1            W  : 1           
c Core budget remaining 30
c CG GAP: 46 T 0
c LB : 709          CS : 1            W  : 1           
c Core budget remaining 30
c CG GAP: 45 T 0
c LB : 710          CS : 1            W  : 1           
c Core budget remaining 30
c CG GAP: 44 T 0
c LB : 711          CS : 1            W  : 1           
c Core budget remaining 30
c CG GAP: 43 T 0
c LB : 712          CS : 1            W  : 1           
c Core budget remaining 30
c CG GAP: 42 T 0
c LB : 713          CS : 1            W  : 1           
c Core budget remaining 30
c CG GAP: 41 T 0
c LB : 714          CS : 1            W  : 1           
c Core budget remaining 30
c CG GAP: 40 T 0
c LB : 715          CS : 1            W  : 1           
c Core budget remaining 30
c CG GAP: 39 T 0
c LB : 716          CS : 1            W  : 1           
c Core budget remaining 30
c CG GAP: 38 T 0
c LB : 717          CS : 1            W  : 1           
c Core budget remaining 30
c CG GAP: 37 T 0
c LB : 718          CS : 1            W  : 1           
c Core budget remaining 30
c CG GAP: 36 T 0
c LB : 719          CS : 1            W  : 1           
c Core budget remaining 30
c CG GAP: 35 T 0
c LB : 720          CS : 1            W  : 1           
c Core budget remaining 30
c CG GAP: 34 T 0
c LB : 721          CS : 1            W  : 1           
c Core budget remaining 30
c CG GAP: 33 T 0
c LB : 722          CS : 1            W  : 1           
c Core budget remaining 30
c CG GAP: 32 T 0
c LB : 723          CS : 1            W  : 1           
c Core budget remaining 30
c CG GAP: 31 T 0
c LB : 724          CS : 1            W  : 1           
c Core budget remaining 30
c CG GAP: 30 T 0
c LB : 725          CS : 1            W  : 1           
c Core budget remaining 30
c CG GAP: 29 T 0
c LB : 726          CS : 1            W  : 1           
c Core budget remaining 30
c CG GAP: 28 T 0
c LB : 727          CS : 1            W  : 1           
c Core budget remaining 30
c CG GAP: 27 T 0
c LB : 728          CS : 1            W  : 1           
c Core budget remaining 30
c CG GAP: 26 T 0
c LB : 729          CS : 1            W  : 1           
c Core budget remaining 30
c CG GAP: 25 T 0
c LB : 730          CS : 1            W  : 1           
c Core budget remaining 30
c CG GAP: 24 T 0
c LB : 731          CS : 1            W  : 1           
c Core budget remaining 30
c CG GAP: 23 T 0
c LB : 732          CS : 1            W  : 1           
c Core budget remaining 30
c CG GAP: 22 T 0
c LB : 733          CS : 1            W  : 1           
c Core budget remaining 30
c CG GAP: 21 T 0
c LB : 734          CS : 1            W  : 1           
c Core budget remaining 30
c CG GAP: 20 T 0
c LB : 735          CS : 1            W  : 1           
c Core budget remaining 30
c CG GAP: 19 T 0
c LB : 736          CS : 1            W  : 1           
c Core budget remaining 30
c CG GAP: 18 T 0
c LB : 737          CS : 1            W  : 1           
c Core budget remaining 30
c CG GAP: 17 T 0
c LB : 738          CS : 1            W  : 1           
c Core budget remaining 30
c CG GAP: 16 T 0
c LB : 739          CS : 1            W  : 1           
c Core budget remaining 30
c CG GAP: 15 T 0
c LB : 740          CS : 1            W  : 1           
c Core budget remaining 30
c CG GAP: 14 T 0
c LB : 741          CS : 1            W  : 1           
c Core budget remaining 30
c CG GAP: 13 T 0
c LB : 742          CS : 1            W  : 1           
c Core budget remaining 30
c CG GAP: 12 T 0
c LB : 743          CS : 1            W  : 1           
c Core budget remaining 30
c CG GAP: 11 T 0
c LB : 744          CS : 1            W  : 1           
c Core budget remaining 30
c CG GAP: 10 T 0
c LB : 745          CS : 1            W  : 1           
c Core budget remaining 30
c CG GAP: 9 T 0
c LB : 746          CS : 1            W  : 1           
c Core budget remaining 30
c CG GAP: 8 T 0
c LB : 747          CS : 1            W  : 1           
c Core budget remaining 30
c CG GAP: 7 T 0
c LB : 748          CS : 1            W  : 1           
c Core budget remaining 30
c CG GAP: 6 T 0
c LB : 749          CS : 1            W  : 1           
c Core budget remaining 30
c CG GAP: 5 T 0
c LB : 750          CS : 1            W  : 1           
c Core budget remaining 30
c CG GAP: 4 T 0
c LB : 751          CS : 1            W  : 1           
c Core budget remaining 30
c CG GAP: 3 T 0
c LB : 752          CS : 1            W  : 1           
c Core budget remaining 30
c CG GAP: 2 T 0
c LB : 753          CS : 1            W  : 1           
c Core budget remaining 30
c CG GAP: 1 T 0
c LB : 754          CS : 5            W  : 1           
c Core budget remaining 30
c CG GAP: 0 T 0
c LB : 755          CS : 5            W  : 1           
c Core budget remaining 30
c SAT-During core guided phase at 0
c Checking model
c LB = UB
c Reconstructing in print answer
c Reconstruction time: 0
c new cost: 755
s OPTIMUM FOUND
v 0010010010010010010010010010010010010010010010010010010010010010010010010010010010010010010010010010010010010010010010010010010010010010010010010010011011011011011011011011011011011011111011011011011011011111011011111011011011011111011110011011011011111111011011111011011011011011011111011011110011111111111111011111111011111111111111011111111111111011111111111111111111011111111011111111111111111111011111111111111011111111111111111111111111111111011111111111111111111111111111111111111111111111111111111111111111111111111111111111111111111111111111111111111111111111111111111111111111111111111111111111111111111111111111111111111111111111111111111111111111111111111111111111111111111111111111111111111111111111111111111111111111111111111111111111111111111111111111111111111111111111111111111111111111111111111111111111111111111111111111111111111111111111111111111111111111111111111111111111111111111111111111111111111111111111111111111111111111111111111111111111111111111111111111111111111111111111111111111111111111111111111111111111111111111111111111111111111111111111111111111111111111111111111111111111111111111111111111111111111111111111111111111111111111111111111111111111111111111111111111111111100000000000000000000000000000000000000000000000000000000000000000000000000000000000000000000000000000000000000000000000000000000000000000000000000000000000000000000000000000000000000000000000000000000000000000000000000000000000000000000000000000000000000000000000000000000000000000000000000000000000000000000000000000000000000000000000000000000000000000000000000000000000000000000000000000000000000000000000000000000000000000000000000000000000000000000000000000000
